l=17501;
a=2;
setup_costs=[|1,0,
|2,3,
|0,0|];
setup_times=[|1,2,
|3,2,
|0,0|];
m=5;
min_cap=[0,0,0,0,0];
max_cap=[8,10,20,19,5];

initState=[1,1,2,2,2];
s=2;
m_a_s = [|2443,8631,
|718,15136,
|0,9871,
|0,5049,
|0,3828|];
m_a_e = [|7369,13684,
|10266,16070,
|0,12788,
|0,11205,
|0,9944|];
n=500;
eligible_machine = [{4,1,5},
{3,1},
{1,2,3},
{3,1,2,5},
{3,2,5},
{1,2,3},
{1,2,4,5},
{2,1,3},
{5,1,2,4},
{2,1},
{3,2},
{5,1,2,3,4},
{2,1,4},
{1,3,5},
{2,3,4},
{4,1},
{5,2,3},
{1,2,3},
{1,2,4,5},
{1,2,3,4,5},
{3,1},
{2,3,4,5},
{3,2,5},
{5,2,3},
{3,1,2},
{1,4},
{4},
{3,4,5},
{3,5},
{5,1,4},
{3,1,2,4},
{5,1,2,4},
{1,2,4,5},
{3,1,4,5},
{5,3},
{4,1,3,5},
{2,4},
{4,1,3},
{4,1},
{2,4},
{4,3},
{5,2},
{1,2,3,4,5},
{1,2,3,5},
{4,1,3},
{5,4},
{5,2,3},
{1,2,3},
{4,2,5},
{5,2,3},
{1,5},
{2,3,4},
{2},
{5,1,2},
{2},
{3},
{2,1},
{1,2,3,5},
{2},
{3,1,2,4,5},
{4,2,3,5},
{4,3},
{2,1,4,5},
{4,1,2,3},
{1,2,4,5},
{2,4},
{4,2,3,5},
{3,2,5},
{1,2,3},
{3,2,4,5},
{1,2,3,4},
{3,1},
{1,3},
{3,5},
{3,2,4,5},
{1,3,5},
{5,1,2,3,4},
{4,3,5},
{3,4},
{5,1,3},
{3,4,5},
{4,1,5},
{4,1,2,3},
{5,1,2},
{4,1,5},
{4,1,3},
{3,1,5},
{4,3,5},
{1,4},
{1,2,3,5},
{4,2,3},
{4,1,3,5},
{1},
{5,3},
{5,3},
{3,1,4,5},
{4,1,5},
{4,2},
{3,1,5},
{5,1,2,3,4},
{5,4},
{2,3,4,5},
{1,2,4,5},
{1,4},
{5,1,3,4},
{5,4},
{1,2,3,5},
{4,3,5},
{4,1,2,3},
{5,4},
{5,1,2,4},
{2,4},
{4,1,2},
{5,1,4},
{2,3,4,5},
{4,1,2,5},
{2,3},
{5,3},
{5,1,2,4},
{1,4,5},
{5},
{5,2,4},
{2,4,5},
{2},
{3,1,2,5},
{4,3,5},
{3,1},
{5,2,4},
{2,3,4},
{2,1,3,4},
{5,2,3},
{3,1},
{1},
{4,1,2,3},
{2,1,4},
{5,3,4},
{3,4},
{2,5},
{5,1,3,4},
{5,3},
{5},
{2,1,3},
{1,3,4},
{3,1,4},
{1,3,4,5},
{2,1,4,5},
{3,2,4,5},
{2,1,3,4,5},
{2,1},
{3,1,4},
{1,4},
{4},
{2,4},
{1,2,4,5},
{4,1,2,5},
{2,1,3},
{3,2,5},
{5,1,2,3},
{2,3,4,5},
{2,1,5},
{4},
{1,2,5},
{4,1,2,5},
{3,1,2},
{3,1},
{1,3,4,5},
{3,1,2},
{2,3},
{4,1,2,3,5},
{3,5},
{4},
{4,1,2},
{1,2,5},
{5,2,3},
{4,2,3,5},
{2,1,5},
{1},
{5,1},
{4},
{1},
{4,1,2,3,5},
{2,3,5},
{2,1,3,4},
{2,3,4},
{1,3},
{1,3,5},
{5,2,3,4},
{2,1,4,5},
{1},
{1,3},
{4,1,5},
{5,2,3},
{4,2,3,5},
{3,2,5},
{2,1,4},
{3,4},
{2,1,3,5},
{2,1,3},
{3,5},
{5,3,4},
{3,4,5},
{2,1,4,5},
{1,2,5},
{2},
{3,1,2,4,5},
{5,1},
{5,2},
{4,2},
{5,1,3,4},
{2,1,5},
{1,2},
{5,1,4},
{1,2,5},
{5,1,3,4},
{4,5},
{2,1,3,5},
{1,3},
{3,1,5},
{1,3,4},
{4,3,5},
{4,1,2},
{1,2,3,4},
{4,1,5},
{1},
{1,3},
{3,4,5},
{2,1,4,5},
{5,3,4},
{4,2,3,5},
{5,2},
{3,2,4,5},
{1,4,5},
{2,4,5},
{2},
{1,3,4,5},
{4,1,2,3},
{4,1,3},
{1},
{1,2,3},
{5,2,3},
{1,3,5},
{1,2,3},
{2,3,4,5},
{2,3,4,5},
{4,1,5},
{5},
{5,1,3},
{2,5},
{2,3,4,5},
{1,3,4,5},
{5,1,2},
{4,2,3},
{3,1},
{5,2,3,4},
{5,1,2},
{4,1,2,5},
{3,4},
{2},
{5,1,2},
{5,1,2,3,4},
{3,1,2,4},
{5,1,2},
{3,2},
{4,2},
{1,3,4,5},
{4,1,3,5},
{1,4},
{5,1,2,3,4},
{3,1,2,4},
{1,3,4},
{3,1,5},
{5,1,2,4},
{1,2,4},
{5,2},
{5,1,3,4},
{4,2,3,5},
{3,1,2,4},
{3,1,4},
{5,1,3},
{3},
{5,2,3},
{2,1,4},
{4,1,2,5},
{3,1,4,5},
{2,3},
{4,2,5},
{3,1,2},
{4},
{1,2,4,5},
{4,1,3,5},
{3,2,4},
{1},
{2},
{5,2,4},
{2,3,5},
{4,2,3,5},
{2,1,4,5},
{5,2,4},
{3,1,2,4,5},
{2,4},
{3,1,5},
{4,5},
{3},
{3},
{2,1,4,5},
{3,1,4},
{1},
{5,2,4},
{1,2,4,5},
{3,1,2,5},
{1,4},
{2,1,3,5},
{3,1,2,5},
{1,2,3,4},
{3,1,2,5},
{4,1,3},
{3,2},
{3,2,5},
{2,3,5},
{3,1,2,4,5},
{5,1,3},
{4,2},
{1},
{1,3,4,5},
{2,3,5},
{1,2,5},
{4,2,3},
{3,1,2,4,5},
{3,4},
{4,1},
{3,2},
{2,3,5},
{5,1,3,4},
{3,4,5},
{4,3,5},
{1,2,4,5},
{5,1,2,4},
{5,2,3,4},
{4,1,2},
{5,1,2,3,4},
{4,1,2},
{2,1,3},
{2,1,4,5},
{5,1,4},
{2,1,4,5},
{3},
{4,1,2},
{5,1},
{2,4,5},
{5},
{3,1,4},
{2,1,3,4,5},
{4,1,2},
{5,4},
{4,1,2,3,5},
{5,1},
{5,2},
{4,1,2,5},
{2,3,5},
{5,1,4},
{2,5},
{3,2,5},
{2},
{4,2,5},
{1,3,4,5},
{1,3,4,5},
{5,1,2},
{4,1,2},
{1,2,4},
{5,1,3},
{1,2,4},
{3},
{1,3,4},
{4,1,2,3},
{5,3,4},
{5,4},
{4,1,2,3,5},
{4,3},
{5,4},
{3,1,2,4},
{4,1,2,3,5},
{3,1,2},
{1,4},
{1,5},
{1,3},
{3,2},
{1,3,5},
{5,2,3},
{4,1},
{1,2,4,5},
{2,3,4},
{1,2,5},
{2,1,4,5},
{1},
{3,1,4,5},
{4,1,2,3,5},
{1,3,4},
{3,1,2,4,5},
{3,1,2},
{2,3,5},
{5,1,3},
{5,1,3,4},
{1,2,4,5},
{1,2,3,4},
{2,1,3,4,5},
{4,1},
{5,2,3},
{2,3,4,5},
{1,3,5},
{2,4},
{3,2,5},
{1,3},
{5,3,4},
{3,1,2,5},
{5,1,3},
{1,2,5},
{5,1,3,4},
{3,1,2},
{1,2,3,4},
{3,1,2,4,5},
{3,1,4,5},
{3,1,4,5},
{4,1,5},
{4},
{5,1,2,4},
{2,3,4},
{4,3,5},
{3,1},
{3,1,2,5},
{3,2,5},
{2,1,4},
{5,1,2},
{3,1,4},
{1,2,4,5},
{3,1,2,4,5},
{2,1,5},
{1,3,4,5},
{4,2,5},
{1,2,3},
{3,4},
{5,1,2},
{5,1,4},
{1},
{5,1},
{2,1},
{4,1,2,5},
{5,1,2,3},
{1,3,4,5},
{3,1,2,5},
{5,3},
{1,2,3,5},
{5,1,3,4},
{1,2,4},
{4,2,5},
{1,2,3,4},
{4,1},
{2,1,3},
{1,2,3,5},
{4,1,2,3,5},
{5,3},
{5,2,3},
{1,3,5},
{4,2,5},
{1,4},
{1},
{5,1,2,4},
{5,2,3,4},
{3,2,5},
{4},
{4,1},
{1,2,4},
{1,3},
{5,1,2,4},
{5},
{1,2,4,5},
{4,1,5},
{1,2,5},
{2,3,4},
{2,1,4},
{1,3,4},
{5,1,2,3,4},
{2,1,3,4},
{1,3},
{4,5},
{1,5},
{2},
{3,1,2,4,5},
{4,1,5},
{4,1,2,5},
{3,2,4},
{1,2,3,4,5},
{5,1,2,3},
{3,1,2,4},
{3,1},
{1,4,5},
{4,1,3,5},
{1,2,4,5},
{5,1,3,4},
{5,1,2,3,4},
{5,2}];
earliest_start=[271,212,198,154,169,60,147,35,196,200,49,57,237,281,18,240,234,149,8,112,114,22,124,233,131,0,107,67,9,130,105,240,127,76,26,27,94,48,223,108,253,126,257,269,56,119,0,217,5,243,111,243,240,254,240,249,88,246,23,168,234,80,25,65,95,90,211,161,255,272,145,186,208,181,140,270,46,136,177,12,281,171,62,48,19,144,0,154,117,58,221,130,24,54,155,173,101,192,174,248,189,121,244,14,97,207,35,58,114,252,202,234,69,10,168,63,17,259,46,232,90,56,44,196,51,15,161,153,26,248,169,136,243,210,104,160,208,47,232,94,109,224,40,146,138,269,60,13,167,92,155,123,145,223,158,132,77,48,245,81,45,163,32,147,83,66,272,140,188,8,136,252,26,234,123,148,16,179,58,63,237,147,267,215,92,45,272,19,52,253,83,160,83,150,48,227,191,175,63,71,278,201,107,159,238,185,96,193,100,9,116,180,272,181,126,180,177,99,54,37,76,252,88,216,207,258,168,158,185,177,238,123,115,268,67,36,40,107,258,189,230,78,201,42,137,185,170,184,24,150,50,92,120,26,277,26,113,172,234,262,16,220,7,205,53,275,64,3,114,90,139,69,122,146,89,279,51,45,79,21,87,266,134,35,127,145,2,89,272,40,205,149,155,278,172,10,70,278,271,143,120,166,69,216,10,262,252,255,218,280,257,67,92,212,174,32,86,254,77,189,272,257,13,74,166,272,196,125,255,78,208,55,55,217,183,203,196,200,24,147,175,29,152,274,65,137,56,224,104,140,206,98,200,81,153,145,152,277,49,20,65,126,281,140,71,202,11,157,29,252,118,167,229,212,14,243,104,21,8,29,215,254,21,115,154,110,136,256,64,37,50,200,150,4,82,48,29,12,202,145,125,181,194,133,22,38,150,270,67,192,41,131,269,20,87,93,104,166,267,243,65,37,92,273,202,199,16,225,130,247,214,91,101,145,185,33,59,170,93,116,242,148,188,154,278,201,213,130,198,270,225,145,27,240,79,87,88,202,213,104,21,206,140,101,260,231,30,123,116,53,33,216,72,150,1,199,130,220,277,1,268,168,27,141,22,68,64,142,65,97,226,138,239,270,94,35,7,87,176,47];
latest_end=[285,213,215,167,173,73,148,44,206,205,59,65,248,291,19,244,248,158,20,122,116,34,127,236,142,10,117,73,11,137,108,253,134,85,31,31,97,58,234,117,262,137,261,282,67,123,7,223,7,258,117,248,251,257,241,264,105,255,30,181,238,88,34,81,96,100,226,169,258,285,146,191,210,186,149,276,53,145,186,16,285,176,66,52,24,160,10,156,131,66,226,138,29,55,157,174,102,200,185,266,195,128,245,19,112,208,37,66,121,261,215,237,71,11,173,64,22,263,55,233,102,64,45,206,58,21,172,155,29,256,175,148,253,219,121,169,210,57,236,97,124,231,51,151,151,272,66,18,175,94,168,138,157,231,161,142,88,52,257,88,47,164,35,158,93,74,275,148,189,17,150,259,39,241,128,152,30,193,59,66,240,155,276,218,94,56,273,26,55,260,96,178,94,165,49,236,195,178,66,73,289,210,111,171,241,187,105,197,104,10,126,193,276,193,130,185,183,102,60,40,88,266,95,229,224,276,179,169,190,185,250,138,125,278,70,41,45,117,273,204,241,89,204,45,151,187,182,185,37,159,52,94,131,40,283,27,122,184,246,265,24,239,24,215,54,286,69,8,125,102,142,83,125,155,99,289,61,47,91,30,91,277,139,46,133,154,5,96,281,42,220,157,169,287,180,27,84,287,273,144,136,170,75,235,16,270,264,256,225,286,263,71,101,216,190,45,97,256,83,194,279,266,23,79,183,277,212,130,258,89,213,58,56,226,197,212,199,207,31,164,194,31,153,275,77,147,70,233,117,149,208,105,202,99,161,148,158,290,64,21,72,137,300,152,74,204,16,158,34,253,134,174,236,219,18,248,116,34,18,37,220,260,28,127,163,118,137,259,67,45,57,202,155,11,90,54,31,15,216,152,127,191,196,144,34,52,160,281,76,193,48,138,272,27,96,94,114,170,271,248,66,40,101,283,211,207,26,231,147,259,217,98,119,148,189,39,62,179,107,126,257,153,195,157,281,210,227,146,209,276,230,154,41,246,84,106,104,208,214,119,37,212,152,113,272,247,43,125,121,54,50,219,79,163,14,212,140,230,288,2,278,169,42,145,28,77,72,151,78,102,238,147,247,271,109,40,13,102,182,50];
min_time=[8,1,9,10,3,9,1,7,6,3,7,5,7,8,1,3,10,8,10,7,2,8,3,3,7,7,6,4,2,7,3,10,5,9,5,3,2,7,7,5,8,6,4,7,7,3,5,4,2,10,4,3,10,3,1,10,9,7,4,7,3,7,5,10,1,7,10,8,3,8,1,3,2,5,9,6,4,6,6,4,3,3,3,3,3,10,10,2,8,5,5,6,4,1,2,1,1,5,7,10,4,7,1,4,9,1,2,6,5,5,7,3,2,1,5,1,5,3,7,1,7,8,1,9,4,6,10,2,3,8,6,9,10,6,10,6,2,9,4,2,8,5,8,3,9,2,4,4,6,2,7,9,9,6,3,6,6,3,10,4,2,1,3,7,10,8,3,6,1,9,10,6,10,5,3,3,10,8,1,2,2,7,6,2,2,7,1,5,3,5,10,10,9,10,1,8,3,2,3,2,10,8,3,8,2,2,9,4,3,1,6,9,3,9,3,5,6,2,6,3,7,9,4,7,9,10,7,10,5,6,10,9,6,9,3,4,4,8,10,10,8,7,2,2,9,2,8,1,8,6,2,2,7,10,5,1,5,7,10,3,6,10,10,7,1,8,3,4,7,9,2,8,2,6,6,10,7,2,9,7,3,6,3,9,4,9,2,6,5,2,9,8,9,8,5,9,8,5,2,1,9,4,5,10,5,5,10,1,5,5,4,4,9,3,10,10,7,2,4,3,6,8,9,5,10,4,10,5,2,7,3,3,1,8,8,9,2,4,5,10,10,2,1,1,8,6,10,6,9,5,2,6,2,10,6,2,6,10,10,1,5,6,10,9,2,2,4,1,5,1,9,4,7,4,4,5,7,9,8,5,5,4,6,7,5,7,1,2,3,7,4,2,4,4,6,4,2,3,9,6,2,9,2,8,7,9,10,8,6,1,5,7,3,5,7,1,10,4,4,5,1,3,9,8,8,8,10,4,9,10,3,5,10,2,3,6,3,9,10,7,8,4,6,2,3,7,9,10,7,5,4,9,9,4,5,10,10,4,1,10,9,6,10,7,9,10,7,2,3,1,9,2,4,8,7,8,8,8,6,1,9,1,8,4,6,5,6,7,7,4,7,9,8,1,8,3,4,9,4,3];
max_time=[10,10,10,10,10,10,10,10,10,10,10,10,10,10,10,10,10,10,10,10,10,10,10,10,10,10,10,10,10,10,10,10,10,10,10,10,10,10,10,10,10,10,10,10,10,10,10,10,10,10,10,10,10,10,10,10,10,10,10,10,10,10,10,10,10,10,10,10,10,10,10,10,10,10,10,10,10,10,10,10,10,10,10,10,10,10,10,10,10,10,10,10,10,10,10,10,10,10,10,10,10,10,10,10,10,10,10,10,10,10,10,10,10,10,10,10,10,10,10,10,10,10,10,10,10,10,10,10,10,10,10,10,10,10,10,10,10,10,10,10,10,10,10,10,10,10,10,10,10,10,10,10,10,10,10,10,10,10,10,10,10,10,10,10,10,10,10,10,10,10,10,10,10,10,10,10,10,10,10,10,10,10,10,10,10,10,10,10,10,10,10,10,10,10,10,10,10,10,10,10,10,10,10,10,10,10,10,10,10,10,10,10,10,10,10,10,10,10,10,10,10,10,10,10,10,10,10,10,10,10,10,10,10,10,10,10,10,10,10,10,10,10,10,10,10,10,10,10,10,10,10,10,10,10,10,10,10,10,10,10,10,10,10,10,10,10,10,10,10,10,10,10,10,10,10,10,10,10,10,10,10,10,10,10,10,10,10,10,10,10,10,10,10,10,10,10,10,10,10,10,10,10,10,10,10,10,10,10,10,10,10,10,10,10,10,10,10,10,10,10,10,10,10,10,10,10,10,10,10,10,10,10,10,10,10,10,10,10,10,10,10,10,10,10,10,10,10,10,10,10,10,10,10,10,10,10,10,10,10,10,10,10,10,10,10,10,10,10,10,10,10,10,10,10,10,10,10,10,10,10,10,10,10,10,10,10,10,10,10,10,10,10,10,10,10,10,10,10,10,10,10,10,10,10,10,10,10,10,10,10,10,10,10,10,10,10,10,10,10,10,10,10,10,10,10,10,10,10,10,10,10,10,10,10,10,10,10,10,10,10,10,10,10,10,10,10,10,10,10,10,10,10,10,10,10,10,10,10,10,10,10,10,10,10,10,10,10,10,10,10,10,10,10,10,10,10,10,10,10,10,10,10,10,10,10,10,10,10,10,10,10,10,10,10,10,10,10,10,10,10];
size=[3,4,2,4,4,1,2,5,5,2,3,5,4,2,5,2,5,3,4,3,1,2,2,1,4,1,4,4,4,3,1,3,1,5,1,1,2,5,4,4,3,5,5,3,3,3,4,1,2,1,3,2,2,4,3,5,4,1,1,4,5,1,4,3,2,5,1,5,1,1,4,3,4,3,4,5,1,1,2,5,3,1,4,3,1,1,3,3,5,5,1,4,5,2,4,4,2,4,4,5,1,5,4,5,5,4,2,1,2,3,5,1,4,2,3,2,1,4,2,4,5,2,4,5,3,5,1,1,1,2,3,2,5,3,3,3,3,3,5,5,5,3,1,3,3,1,4,2,1,1,1,1,5,4,1,4,2,4,1,4,5,2,3,2,4,3,3,3,5,4,4,2,4,4,4,4,4,2,3,1,5,3,5,2,3,1,5,2,4,5,3,5,4,3,4,3,2,3,4,3,4,4,5,4,4,5,2,2,2,4,3,3,5,2,1,5,3,4,5,5,4,2,3,2,3,4,1,2,1,5,5,5,1,4,4,4,1,4,2,4,4,3,2,3,3,3,1,1,2,1,2,1,4,2,1,2,1,5,3,5,5,1,2,1,2,2,5,5,5,5,3,5,5,2,2,5,3,4,1,4,5,2,1,3,3,4,1,3,3,1,5,1,4,3,4,5,5,3,2,5,5,4,5,5,3,3,2,3,2,4,5,3,4,4,4,5,5,4,2,4,1,2,3,4,3,4,3,1,2,3,3,2,3,4,5,3,2,3,4,4,1,2,4,4,3,1,5,3,2,1,3,2,2,4,5,5,2,4,1,1,4,4,4,3,1,2,1,3,2,2,3,4,2,5,1,3,4,3,5,5,1,5,4,2,5,3,1,1,4,2,5,4,5,1,2,1,3,3,1,5,5,1,4,4,2,1,3,3,5,2,5,4,3,3,1,2,4,4,3,4,2,1,1,3,2,2,4,1,2,2,2,2,2,5,5,1,4,2,4,2,1,5,3,1,2,2,3,2,3,1,5,3,4,4,1,5,3,4,5,4,2,5,4,4,3,4,2,1,5,4,1,2,4,5,1,2,2,3,5,4,3,4,1,1,4,4,3,2,4,5,5,5,5,1,1,3,1,4,3,3];
attribute=[2,2,2,2,2,2,2,1,2,1,2,1,1,1,2,1,2,2,2,1,1,1,2,1,1,2,2,1,2,1,1,2,2,1,1,2,1,2,2,1,1,2,2,2,2,2,1,2,1,2,2,1,1,1,2,1,1,2,2,2,1,1,2,2,1,2,2,2,1,2,1,1,1,1,1,1,1,1,1,2,1,1,2,2,2,2,1,2,1,1,1,2,1,1,1,2,2,2,2,2,2,1,2,1,2,1,2,1,2,1,1,2,1,2,1,1,2,2,1,2,2,1,2,2,1,2,1,2,2,1,2,2,1,2,1,2,2,2,1,2,2,1,2,1,2,1,1,1,2,1,2,1,1,2,2,1,1,2,1,1,2,2,1,1,1,2,1,1,2,2,2,2,1,1,1,2,1,1,2,1,2,1,1,2,2,2,1,1,1,2,2,2,1,1,1,2,2,2,1,2,2,2,1,2,1,2,2,2,2,2,1,2,1,2,1,1,1,2,2,1,1,2,1,1,2,1,1,1,2,1,1,2,2,2,2,2,2,1,1,2,2,2,2,2,1,1,2,1,2,1,1,1,2,1,2,1,2,1,1,1,2,2,2,1,1,1,1,2,2,2,2,2,2,2,1,2,2,2,1,2,1,1,1,2,2,2,1,1,2,2,1,2,2,2,1,1,2,2,1,1,2,2,1,1,2,2,2,2,1,1,1,2,1,1,2,2,1,1,2,2,2,2,2,1,2,2,2,2,1,2,2,1,1,2,1,1,1,1,1,1,1,1,1,1,1,1,1,1,1,2,1,2,2,1,2,1,2,1,2,2,2,2,2,1,1,1,1,2,1,1,2,1,2,2,1,2,2,1,1,2,1,1,2,2,2,1,1,2,1,2,2,2,2,1,1,1,1,1,2,1,1,2,1,2,2,1,2,1,1,1,2,2,2,2,1,1,2,1,1,1,2,2,2,1,1,1,2,1,2,2,1,2,1,1,1,1,2,2,1,1,2,1,2,1,1,1,2,2,1,1,1,1,1,2,1,1,1,2,2,1,1,2,2,1,1,1,2,1,2,1,2,1,2,1,1,1,1,2,2,2,2,2,2,2,1,2,1,1,2,2,1,1,1,2,1,1,1,2,1,2];

upper_bound_integer_objective=2110114805;
mult_factor_total_runtime=752001;
mult_factor_finished_toolate=1501;
mult_factor_total_setuptimes=0;
mult_factor_total_setupcosts=1;
running_time_bound=2805;
min_duration=1;
max_duration=10;
max_setup_time=3;
max_setup_cost=3;
